19067.9
0 184 183 169 167 156 155 140 141 154 153 142 158 157 166 165 168 171 170 182 185 197 196 186 181 172 164 159 152 143 136 129 130 135 134 131 132 125 124 123 122 119 120 121 127 128 126 137 145 150 144 151 160 173 180 187 188 194 193 192 1 2 191 189 178 177 190 4 3 5 14 13 12 6 7 11 10 9 8 20 19 18 17 16 15 22 21 23 24 25 69 26 30 31 32 34 35 33 36 41 40 42 47 46 43 45 44 50 51 63 64 65 66 72 71 28 27 70 29 37 49 52 53 48 61 62 60 59 58 57 56 55 54 39 38 67 68 161 147 146 148 149 162 176 175 174 179 163 195 133 118 117 116 115 114 113 112 138 139 111 110 109 108 107 106 103 102 101 104 105 100 99 73 74 75 77 81 83 82 89 90 91 88 84 80 78 79 94 85 87 92 93 86 96 97 98 95 76 
